% Auto-generated by scripts/generate_dzn.py
% problem_type   = regex
% instance       = regex_47
% source_json    = instances_json/1_medium_blowup/regex_47.json
% blowup         = 2.391304347826087
% representation = DFA

mode = 0;

var_count = 20;
n_constraints = 2;
Q = 41;
S = 2;
q0 = [1, 1];
F = [{29, 30, 31, 32, 33, 34, 35, 36, 37, 38, 39, 40, 41}, {13}];
weights = [10, 5, 4, 4, 3, 10, 4, 1, 3, 6, 4, 4, 1, 2, 3, 6, 7, 7, 3, 3];
d_dfa = array3d(1..2, 1..41, 1..2, [
  % k = 1
    2, 1,
    2, 3,
    2, 4,
    6, 5,
    8, 7,
    8, 9,
    11, 10,
    11, 12,
    11, 13,
    15, 14,
    15, 16,
    15, 17,
    19, 18,
    21, 20,
    21, 22,
    21, 23,
    25, 24,
    27, 26,
    27, 28,
    30, 29,
    30, 31,
    30, 32,
    34, 33,
    36, 35,
    36, 37,
    39, 38,
    39, 40,
    39, 41,
    2, 1,
    2, 3,
    2, 4,
    6, 5,
    8, 7,
    8, 9,
    11, 10,
    11, 12,
    11, 13,
    15, 14,
    15, 16,
    15, 17,
    19, 18,

  % k = 2
    2, 1,
    3, 2,
    4, 3,
    5, 4,
    6, 5,
    7, 6,
    8, 7,
    9, 8,
    10, 9,
    11, 10,
    12, 11,
    13, 12,
    14, 13,
    14, 14,
    0, 0,
    0, 0,
    0, 0,
    0, 0,
    0, 0,
    0, 0,
    0, 0,
    0, 0,
    0, 0,
    0, 0,
    0, 0,
    0, 0,
    0, 0,
    0, 0,
    0, 0,
    0, 0,
    0, 0,
    0, 0,
    0, 0,
    0, 0,
    0, 0,
    0, 0,
    0, 0,
    0, 0,
    0, 0,
    0, 0,
    0, 0
]);
d_nfa = array3d(1..2, 1..41, 1..2, [
  % k = 1
    {}, {},
    {}, {},
    {}, {},
    {}, {},
    {}, {},
    {}, {},
    {}, {},
    {}, {},
    {}, {},
    {}, {},
    {}, {},
    {}, {},
    {}, {},
    {}, {},
    {}, {},
    {}, {},
    {}, {},
    {}, {},
    {}, {},
    {}, {},
    {}, {},
    {}, {},
    {}, {},
    {}, {},
    {}, {},
    {}, {},
    {}, {},
    {}, {},
    {}, {},
    {}, {},
    {}, {},
    {}, {},
    {}, {},
    {}, {},
    {}, {},
    {}, {},
    {}, {},
    {}, {},
    {}, {},
    {}, {},
    {}, {},

  % k = 2
    {}, {},
    {}, {},
    {}, {},
    {}, {},
    {}, {},
    {}, {},
    {}, {},
    {}, {},
    {}, {},
    {}, {},
    {}, {},
    {}, {},
    {}, {},
    {}, {},
    {}, {},
    {}, {},
    {}, {},
    {}, {},
    {}, {},
    {}, {},
    {}, {},
    {}, {},
    {}, {},
    {}, {},
    {}, {},
    {}, {},
    {}, {},
    {}, {},
    {}, {},
    {}, {},
    {}, {},
    {}, {},
    {}, {},
    {}, {},
    {}, {},
    {}, {},
    {}, {},
    {}, {},
    {}, {},
    {}, {},
    {}, {}
]);
